1 31 2
-855 -934 -678 -504 -410 -314 -212 -702 -544 -732 -357 -856 -125 -786 -26 -795 -780 -961 -219 -77 -121 -692 -746 -902 -22 -982 -970 -264 -610 -902 0 
-52 -67 -347 -555 -654 -757 -757 -220 -455 -282 -674 -81 -934 -231 -910 -249 -162 -86 -795 -961 -979 -399 -220 -38 -980 -69 -28 -670 -375 -67 0 
895 839 1165 1022 1069 972 1151 927 978 1059 1026 1004 1199 934 1028 1122 1038 1051 1064 913 1155 1085 998 1125 1159 1123 1024 942 987 794 1 
15424 
